p cnf 743 877
c 79 select(1,45)
c 80 nots(1,45)
c 81 select(1,46)
c 82 nots(1,46)
c 83 reach(46)
c 84 reach(45)
c 85 select(45,1)
c 86 nots(45,1)
c 87 select(45,9)
c 88 nots(45,9)
c 89 select(46,1)
c 90 nots(46,1)
c 91 select(46,51)
c 92 nots(46,51)
c 93 reach(51)
c 94 reach(9)
c 95 select(51,46)
c 96 nots(51,46)
c 97 select(9,57)
c 98 nots(9,57)
c 99 select(9,45)
c 100 nots(9,45)
c 101 select(51,59)
c 102 nots(51,59)
c 103 reach(59)
c 104 reach(57)
c 105 select(57,9)
c 106 nots(57,9)
c 107 select(57,14)
c 108 nots(57,14)
c 109 select(57,55)
c 110 nots(57,55)
c 111 select(59,51)
c 112 nots(59,51)
c 113 reach(55)
c 114 reach(14)
c 115 select(14,6)
c 116 nots(14,6)
c 117 select(55,44)
c 118 nots(55,44)
c 119 select(14,57)
c 120 nots(14,57)
c 121 select(55,57)
c 122 nots(55,57)
c 123 reach(44)
c 124 reach(6)
c 125 select(6,32)
c 126 nots(6,32)
c 127 select(6,14)
c 128 nots(6,14)
c 129 select(44,62)
c 130 nots(44,62)
c 131 select(44,55)
c 132 nots(44,55)
c 133 reach(62)
c 134 reach(32)
c 135 select(32,6)
c 136 nots(32,6)
c 137 select(62,44)
c 138 nots(62,44)
c 139 select(32,64)
c 140 nots(32,64)
c 141 select(62,64)
c 142 nots(62,64)
c 143 reach(64)
c 144 select(64,32)
c 145 nots(64,32)
c 146 select(64,61)
c 147 nots(64,61)
c 148 select(64,62)
c 149 nots(64,62)
c 150 reach(61)
c 151 select(61,52)
c 152 nots(61,52)
c 153 select(61,60)
c 154 nots(61,60)
c 155 select(61,64)
c 156 nots(61,64)
c 157 reach(60)
c 158 reach(52)
c 159 select(52,31)
c 160 nots(52,31)
c 161 select(60,31)
c 162 nots(60,31)
c 163 select(52,61)
c 164 nots(52,61)
c 165 select(60,61)
c 166 nots(60,61)
c 167 reach(31)
c 168 select(31,13)
c 169 nots(31,13)
c 170 select(31,52)
c 171 nots(31,52)
c 172 select(31,66)
c 173 nots(31,66)
c 174 select(31,60)
c 175 nots(31,60)
c 176 reach(66)
c 177 reach(13)
c 178 select(66,31)
c 179 nots(66,31)
c 180 select(66,49)
c 181 nots(66,49)
c 182 select(13,28)
c 183 nots(13,28)
c 184 select(13,31)
c 185 nots(13,31)
c 186 reach(28)
c 187 reach(49)
c 188 select(49,29)
c 189 nots(49,29)
c 190 select(28,13)
c 191 nots(28,13)
c 192 select(28,24)
c 193 nots(28,24)
c 194 select(49,66)
c 195 nots(49,66)
c 196 reach(24)
c 197 reach(29)
c 198 select(29,22)
c 199 nots(29,22)
c 200 select(29,49)
c 201 nots(29,49)
c 202 select(24,28)
c 203 nots(24,28)
c 204 select(24,39)
c 205 nots(24,39)
c 206 reach(39)
c 207 reach(22)
c 208 select(39,15)
c 209 nots(39,15)
c 210 select(39,24)
c 211 nots(39,24)
c 212 select(22,29)
c 213 nots(22,29)
c 214 select(22,53)
c 215 nots(22,53)
c 216 reach(53)
c 217 reach(15)
c 218 select(53,22)
c 219 nots(53,22)
c 220 select(15,36)
c 221 nots(15,36)
c 222 select(15,39)
c 223 nots(15,39)
c 224 select(53,54)
c 225 nots(53,54)
c 226 reach(54)
c 227 reach(36)
c 228 select(36,5)
c 229 nots(36,5)
c 230 select(36,12)
c 231 nots(36,12)
c 232 select(36,15)
c 233 nots(36,15)
c 234 select(36,36)
c 235 nots(36,36)
c 236 select(54,37)
c 237 nots(54,37)
c 238 select(54,53)
c 239 nots(54,53)
c 240 select(36,38)
c 241 nots(36,38)
c 242 select(36,48)
c 243 nots(36,48)
c 244 reach(48)
c 245 reach(38)
c 246 reach(37)
c 247 reach(12)
c 248 reach(5)
c 249 select(38,36)
c 250 nots(38,36)
c 251 select(48,36)
c 252 nots(48,36)
c 253 select(48,43)
c 254 nots(48,43)
c 255 select(5,56)
c 256 nots(5,56)
c 257 select(5,36)
c 258 nots(5,36)
c 259 select(5,43)
c 260 nots(5,43)
c 261 select(5,20)
c 262 nots(5,20)
c 263 select(12,56)
c 264 nots(12,56)
c 265 select(12,36)
c 266 nots(12,36)
c 267 select(37,54)
c 268 nots(37,54)
c 269 select(38,56)
c 270 nots(38,56)
c 271 reach(56)
c 272 reach(20)
c 273 reach(43)
c 274 select(43,5)
c 275 nots(43,5)
c 276 select(20,5)
c 277 nots(20,5)
c 278 select(56,5)
c 279 nots(56,5)
c 280 select(56,12)
c 281 nots(56,12)
c 282 select(56,25)
c 283 nots(56,25)
c 284 select(56,38)
c 285 nots(56,38)
c 286 select(43,48)
c 287 nots(43,48)
c 288 select(20,23)
c 289 nots(20,23)
c 290 reach(23)
c 291 reach(25)
c 292 select(25,19)
c 293 nots(25,19)
c 294 select(23,20)
c 295 nots(23,20)
c 296 select(25,56)
c 297 nots(25,56)
c 298 select(25,34)
c 299 nots(25,34)
c 300 select(23,58)
c 301 nots(23,58)
c 302 reach(58)
c 303 reach(34)
c 304 reach(19)
c 305 select(34,25)
c 306 nots(34,25)
c 307 select(58,2)
c 308 nots(58,2)
c 309 select(58,19)
c 310 nots(58,19)
c 311 select(58,23)
c 312 nots(58,23)
c 313 select(58,26)
c 314 nots(58,26)
c 315 select(19,25)
c 316 nots(19,25)
c 317 select(19,58)
c 318 nots(19,58)
c 319 select(34,41)
c 320 nots(34,41)
c 321 reach(41)
c 322 reach(26)
c 323 reach(2)
c 324 select(26,2)
c 325 nots(26,2)
c 326 select(41,8)
c 327 nots(41,8)
c 328 select(41,34)
c 329 nots(41,34)
c 330 select(2,58)
c 331 nots(2,58)
c 332 select(2,26)
c 333 nots(2,26)
c 334 select(26,42)
c 335 nots(26,42)
c 336 select(26,58)
c 337 nots(26,58)
c 338 reach(42)
c 339 reach(8)
c 340 select(42,17)
c 341 nots(42,17)
c 342 select(42,26)
c 343 nots(42,26)
c 344 select(8,65)
c 345 nots(8,65)
c 346 select(8,41)
c 347 nots(8,41)
c 348 reach(65)
c 349 reach(17)
c 350 select(17,10)
c 351 nots(17,10)
c 352 select(65,8)
c 353 nots(65,8)
c 354 select(65,10)
c 355 nots(65,10)
c 356 select(17,42)
c 357 nots(17,42)
c 358 select(17,50)
c 359 nots(17,50)
c 360 select(17,18)
c 361 nots(17,18)
c 362 reach(18)
c 363 reach(50)
c 364 reach(10)
c 365 select(50,17)
c 366 nots(50,17)
c 367 select(50,27)
c 368 nots(50,27)
c 369 select(18,17)
c 370 nots(18,17)
c 371 select(10,65)
c 372 nots(10,65)
c 373 select(10,17)
c 374 nots(10,17)
c 375 select(18,47)
c 376 nots(18,47)
c 377 reach(47)
c 378 reach(27)
c 379 select(47,18)
c 380 nots(47,18)
c 381 select(47,21)
c 382 nots(47,21)
c 383 select(27,33)
c 384 nots(27,33)
c 385 select(27,50)
c 386 nots(27,50)
c 387 reach(33)
c 388 reach(21)
c 389 select(33,3)
c 390 nots(33,3)
c 391 select(33,27)
c 392 nots(33,27)
c 393 select(21,40)
c 394 nots(21,40)
c 395 select(21,47)
c 396 nots(21,47)
c 397 reach(40)
c 398 reach(3)
c 399 select(40,21)
c 400 nots(40,21)
c 401 select(3,33)
c 402 nots(3,33)
c 403 select(3,4)
c 404 nots(3,4)
c 405 select(40,63)
c 406 nots(40,63)
c 407 reach(63)
c 408 reach(4)
c 409 select(4,3)
c 410 nots(4,3)
c 411 select(63,4)
c 412 nots(63,4)
c 413 select(63,40)
c 414 nots(63,40)
c 415 select(4,11)
c 416 nots(4,11)
c 417 select(4,16)
c 418 nots(4,16)
c 419 select(4,63)
c 420 nots(4,63)
c 421 reach(16)
c 422 reach(11)
c 423 select(11,4)
c 424 nots(11,4)
c 425 select(11,7)
c 426 nots(11,7)
c 427 select(16,4)
c 428 nots(16,4)
c 429 select(16,30)
c 430 nots(16,30)
c 431 reach(30)
c 432 reach(7)
c 433 select(30,16)
c 434 nots(30,16)
c 435 select(7,35)
c 436 nots(7,35)
c 437 select(7,11)
c 438 nots(7,11)
c 439 select(30,35)
c 440 nots(30,35)
c 441 reach(35)
c 442 select(35,7)
c 443 nots(35,7)
c 444 select(35,30)
c 445 nots(35,30)
c 513 edge(1,45)
c 514 edge(1,46)
c 515 edge(2,58)
c 516 edge(2,26)
c 517 edge(3,33)
c 518 edge(3,4)
c 519 edge(4,11)
c 520 edge(4,16)
c 521 edge(4,63)
c 522 edge(5,56)
c 523 edge(5,36)
c 524 edge(5,43)
c 525 edge(5,20)
c 526 edge(6,32)
c 527 edge(6,14)
c 528 edge(7,35)
c 529 edge(7,11)
c 530 edge(8,65)
c 531 edge(8,41)
c 532 edge(9,57)
c 533 edge(9,45)
c 534 edge(10,65)
c 535 edge(10,17)
c 536 edge(12,56)
c 537 edge(12,36)
c 538 edge(13,28)
c 539 edge(13,31)
c 540 edge(14,57)
c 541 edge(15,36)
c 542 edge(15,39)
c 543 edge(16,30)
c 544 edge(17,42)
c 545 edge(17,50)
c 546 edge(17,18)
c 547 edge(18,47)
c 548 edge(19,25)
c 549 edge(19,58)
c 550 edge(20,23)
c 551 edge(21,40)
c 552 edge(21,47)
c 553 edge(22,29)
c 554 edge(22,53)
c 555 edge(23,58)
c 556 edge(24,28)
c 557 edge(24,39)
c 558 edge(25,56)
c 559 edge(25,34)
c 560 edge(26,42)
c 561 edge(26,58)
c 562 edge(27,33)
c 563 edge(27,50)
c 564 edge(29,49)
c 565 edge(30,35)
c 566 edge(31,52)
c 567 edge(31,66)
c 568 edge(31,60)
c 569 edge(32,64)
c 570 edge(34,41)
c 571 edge(36,36)
c 572 edge(36,38)
c 573 edge(36,48)
c 574 edge(37,54)
c 575 edge(38,56)
c 576 edge(40,63)
c 577 edge(43,48)
c 578 edge(44,62)
c 579 edge(44,55)
c 580 edge(46,51)
c 581 edge(49,66)
c 582 edge(51,59)
c 583 edge(52,61)
c 584 edge(53,54)
c 585 edge(55,57)
c 586 edge(60,61)
c 587 edge(61,64)
c 588 edge(62,64)
c 589 reach(1)
c 590 goal(66)
176 0
-464 0
513 0
514 0
515 0
516 0
517 0
518 0
519 0
520 0
521 0
522 0
523 0
524 0
525 0
526 0
527 0
528 0
529 0
530 0
531 0
532 0
533 0
534 0
535 0
536 0
537 0
538 0
539 0
540 0
541 0
542 0
543 0
544 0
545 0
546 0
547 0
548 0
549 0
550 0
551 0
552 0
553 0
554 0
555 0
556 0
557 0
558 0
559 0
560 0
561 0
562 0
563 0
564 0
565 0
566 0
567 0
568 0
569 0
570 0
571 0
572 0
573 0
574 0
575 0
576 0
577 0
578 0
579 0
580 0
581 0
582 0
583 0
584 0
585 0
586 0
587 0
588 0
589 0
590 0
-1 0
-2 0
-3 0
-4 0
-5 0
-6 0
-7 0
-8 0
-9 0
-10 0
-11 0
-12 0
-13 0
-14 0
-15 0
-16 0
-17 0
-18 0
-19 0
-20 0
-21 0
-22 0
-23 0
-24 0
-25 0
-26 0
-27 0
-28 0
-29 0
-30 0
-31 0
-32 0
-33 0
-34 0
-35 0
-36 0
-37 0
-38 0
-39 0
-40 0
-41 0
-42 0
-43 0
-44 0
-45 0
-46 0
-47 0
-48 0
-49 0
-50 0
-51 0
-52 0
-53 0
-54 0
-55 0
-56 0
-57 0
-58 0
-59 0
-60 0
-61 0
-62 0
-63 0
-64 0
-65 0
-66 0
-67 0
-68 0
-69 0
-70 0
-71 0
-72 0
-73 0
-74 0
-75 0
-76 0
-77 0
-78 0
-446 0
-447 0
-448 0
-449 0
-450 0
-451 0
-452 0
-453 0
-454 0
-455 0
-456 0
-457 0
-458 0
-459 0
-460 0
-461 0
-462 0
-463 0
-742 0
-178 0
-631 0
179 0
-743 0
-180 0
-630 0
181 0
-465 0
-466 0
-467 0
-468 0
-469 0
-470 0
-471 0
-472 0
-473 0
-474 0
-475 0
-476 0
-477 0
-478 0
-479 0
-480 0
-481 0
-482 0
-483 0
-484 0
-485 0
-486 0
-487 0
-488 0
-489 0
-490 0
-491 0
-492 0
-493 0
-494 0
-495 0
-496 0
-497 0
-498 0
-499 0
-500 0
-501 0
-502 0
-503 0
-504 0
-505 0
-506 0
-507 0
-508 0
-509 0
-510 0
-511 0
-512 0
-194 0
-632 0
625 0
172 0
167 0
-173 0
-168 0
-170 0
-174 0
-627 0
169 0
-626 0
171 0
-624 0
175 0
592 0
79 0
84 0
-80 0
-81 0
82 0
-591 0
-184 0
-628 0
-155 0
615 0
594 0
-617 0
146 0
150 0
87 0
94 0
143 0
-147 0
-144 0
-148 0
156 0
-88 0
-85 0
149 0
-616 0
145 0
-614 0
86 0
596 0
97 0
104 0
-98 0
-99 0
-595 0
100 0
-89 0
-92 0
-105 0
-601 0
106 0
-112 0
-116 0
-118 0
-119 0
-603 0
-121 0
-602 0
-160 0
-162 0
-163 0
-621 0
-165 0
-620 0
-183 0
-189 0
-268 0
-623 0
-622 0
-611 0
-610 0
-195 0
-185 0
-166 0
-164 0
-122 0
-120 0
-90 0
-652 0
-639 0
-638 0
-635 0
-619 0
-618 0
-613 0
-612 0
-609 0
-607 0
-597 0
-593 0
-154 0
-152 0
-110 0
-108 0
-649 0
-648 0
-188 0
-161 0
-159 0
-158 0
-91 0
-235 0
-153 0
-151 0
-733 0
-731 0
-647 0
-646 0
-644 0
-643 0
-641 0
-640 0
-636 0
-633 0
-741 0
-740 0
-445 0
-443 0
-440 0
-438 0
-436 0
-434 0
-430 0
-428 0
-426 0
-424 0
-420 0
-418 0
-416 0
-414 0
-412 0
-410 0
-406 0
-404 0
-402 0
-400 0
-396 0
-394 0
-392 0
-390 0
-386 0
-384 0
-382 0
-380 0
-376 0
-374 0
-372 0
-370 0
-368 0
-366 0
-361 0
-359 0
-357 0
-355 0
-353 0
-351 0
-347 0
-345 0
-343 0
-341 0
-337 0
-335 0
-427 0
-333 0
-331 0
-329 0
-327 0
-325 0
-320 0
-318 0
-107 0
-600 0
-109 0
-599 0
-316 0
-314 0
-96 0
-95 0
-102 0
-101 0
-103 0
-111 0
-598 0
-128 0
-130 0
-132 0
-123 0
-138 0
-140 0
-142 0
-604 0
-141 0
-136 0
-117 0
-191 0
-193 0
-192 0
-201 0
-200 0
-205 0
-204 0
-211 0
-213 0
-215 0
-219 0
-221 0
-223 0
-225 0
-229 0
-231 0
-233 0
-237 0
-239 0
-241 0
-243 0
-212 0
-250 0
-252 0
-254 0
-256 0
-258 0
-260 0
-262 0
-264 0
-266 0
-214 0
-270 0
-275 0
-277 0
-279 0
-281 0
-283 0
-285 0
-287 0
-289 0
-293 0
-295 0
-297 0
-299 0
-301 0
-306 0
-308 0
-310 0
-312 0
-126 0
-190 0
-218 0
-220 0
-634 0
-177 0
-224 0
-182 0
-629 0
-209 0
-208 0
-203 0
-199 0
-125 0
-127 0
-608 0
-114 0
-115 0
-605 0
-129 0
-131 0
-606 0
-236 0
-246 0
-267 0
-135 0
-137 0
-437 0
-369 0
-367 0
-365 0
-354 0
-352 0
-346 0
-344 0
-342 0
-340 0
-332 0
-330 0
-328 0
-326 0
-319 0
-317 0
-315 0
-300 0
-294 0
-288 0
-286 0
-276 0
-274 0
-269 0
-265 0
-263 0
-253 0
-251 0
-371 0
-373 0
-735 0
-381 0
-385 0
-389 0
-401 0
-403 0
-393 0
-405 0
-202 0
-411 0
-425 0
-433 0
-737 0
-383 0
-391 0
-399 0
-732 0
-379 0
-723 0
-722 0
-720 0
-429 0
-730 0
-439 0
-734 0
-222 0
-637 0
-395 0
-435 0
-442 0
-444 0
-719 0
-718 0
-375 0
-717 0
-210 0
-413 0
-716 0
-715 0
-712 0
-711 0
-708 0
-704 0
-703 0
-657 0
-698 0
-696 0
-693 0
-692 0
-683 0
-679 0
-675 0
-665 0
-669 0
-668 0
-238 0
-336 0
-670 0
-139 0
-672 0
-334 0
-324 0
-298 0
-296 0
-292 0
-198 0
-651 0
-680 0
-655 0
-702 0
-695 0
-690 0
-261 0
-280 0
-282 0
-284 0
-311 0
-313 0
-350 0
-360 0
-419 0
-417 0
-409 0
-667 0
-697 0
-659 0
-699 0
-688 0
-701 0
-662 0
-739 0
-656 0
-736 0
-706 0
-673 0
-682 0
-694 0
-674 0
-654 0
-728 0
-713 0
-714 0
-642 0
-664 0
-242 0
-645 0
-686 0
-687 0
-710 0
-678 0
-726 0
-681 0
-658 0
-738 0
-663 0
-653 0
-689 0
113 -133 134 0
-196 206 186 0
226 -216 -197 187 0
666 -660 257 -227 232 -247 234 249 0
666 -660 257 -247 234 -227 249 -206 196 0
-187 216 -207 0
-206 217 196 0
227 -228 0
227 -230 0
227 -232 0
227 -240 0
-650 -230 0
226 -216 207 0
206 -217 232 0
245 -249 0
248 -255 0
248 -257 0
248 -259 0
-249 255 -677 660 -271 0
-661 -257 0
244 -273 259 0
-249 -304 309 -271 660 255 0
-666 -273 259 0
271 -278 0
228 272 273 278 -248 0
278 228 -290 685 650 -248 -244 0
-671 -278 0
272 -290 685 0
-676 290 0
-304 309 -677 0
-272 661 290 0
245 660 291 -271 255 0
-305 303 0
302 -307 0
-309 302 0
-305 339 -321 0
-338 671 -691 676 356 -302 -291 305 0
-684 -309 0
-685 -309 0
-304 291 309 0
307 322 -323 0
671 304 305 -291 0
676 304 322 -302 323 0
-338 322 356 0
-691 323 0
348 -339 321 0
-303 677 321 0
-338 -323 356 307 0
339 -348 364 0
-305 -321 -707 -348 0
338 709 363 707 -349 0
-322 684 338 691 0
349 -356 0
349 -358 0
-700 -358 0
-363 358 378 0
677 -303 705 -364 -339 0
-705 -358 0
388 -377 362 0
-305 -348 364 -321 0
-709 362 0
684 691 709 387 -378 707 -349 -322 0
378 -387 398 0
-362 -388 397 700 0
-362 377 700 0
388 -397 727 0
387 -398 729 0
684 709 729 691 -398 707 -349 -378 -322 0
-362 -407 724 700 -388 0
358 -363 -721 -387 0
408 -415 0
-724 -415 0
-725 -415 0
-422 415 432 0
407 421 721 -408 423 0
421 721 423 -727 -408 0
-729 -724 0
422 -423 0
721 -408 -432 422 -431 407 0
721 -727 -432 422 -408 -431 0
-422 415 -421 725 -441 0
-422 415 431 -441 0
725 -421 432 -441 0
-423 441 -432 0
-423 -431 -432 421 0
-83 93 0
-134 124 0
133 134 0
-187 197 0
207 -197 187 0
-207 216 197 0
-228 -230 -227 0
-232 -228 -227 0
-232 -230 -227 0
-234 -228 -227 0
-234 -230 -227 0
-234 -232 -227 0
-240 -228 -227 0
-240 -230 -227 0
-232 -240 -227 0
-234 -240 -227 0
-650 -234 0
-650 -240 0
-650 227 0
-650 -228 0
-650 -232 0
-666 244 0
-257 -255 -248 0
-255 -259 -248 0
-661 248 0
-661 -259 0
-257 -259 -248 0
-661 -255 0
247 -660 0
230 -278 -247 0
-245 240 271 0
240 -245 -671 0
-278 240 -245 0
-671 271 0
230 -247 -671 0
-244 650 273 0
228 278 -290 685 -248 273 0
660 255 -677 -271 245 0
-677 291 0
245 660 309 -271 -304 255 0
661 -272 -676 0
-309 -307 0
-685 302 0
-684 302 0
-685 -684 0
-684 -307 0
-685 -307 0
671 307 -691 676 -302 -291 305 0
303 -321 339 0
348 -303 677 -339 0
-338 676 -691 356 -302 304 0
-338 676 304 356 -302 323 0
671 322 305 676 -302 -291 323 0
684 691 709 707 -349 363 -322 0
303 -321 -707 -348 0
348 -364 705 0
-705 349 0
-705 -700 0
-700 349 0
-356 -358 -349 0
-700 -356 0
-705 -356 0
387 -378 363 0
-707 364 0
388 -377 -709 0
-388 377 397 0
-387 358 398 -363 0
709 707 729 -398 -349 -378 338 0
-709 -397 727 -377 0
-721 398 0
397 -407 724 0
-727 407 0
-729 -725 0
-724 -725 0
-729 408 0
-724 408 0
-725 408 0
-729 -415 0
421 -431 441 0
-421 725 431 0
421 -431 -432 422 0
-217 -196 232 186 0
666 247 257 -227 232 234 249 0
-232 217 0
227 -234 0
666 247 249 234 -227 257 -206 196 0
227 -257 0
-666 227 0
227 -249 0
-650 244 0
245 -240 0
230 -247 -245 240 0
247 -230 0
230 -247 271 0
-228 248 0
-278 248 0
650 272 278 -248 228 -244 0
-660 271 0
271 -255 0
660 -249 -271 291 255 0
-661 272 0
-259 273 0
-685 290 0
-671 291 0
291 -305 0
-676 302 0
676 307 -691 -302 304 0
671 676 356 -302 -291 323 305 -338 0
-677 303 0
-309 304 0
-321 303 364 -348 0
-684 322 0
-691 322 0
-307 323 0
-356 338 0
321 -339 -364 705 0
339 -348 -707 0
387 -349 709 707 -378 338 0
-707 349 0
-709 349 0
-700 362 0
-358 363 0
-705 364 0
362 -377 727 -397 0
363 -378 -398 729 0
378 -387 -721 0
377 -407 724 -388 0
-727 397 0
-729 398 0
-724 407 0
-721 408 0
-727 721 423 -408 441 -431 0
-725 421 0
-415 422 0
721 -408 441 -431 407 423 0
-432 441 422 0
432 -441 431 0
